0 4983.46
1 4957.96
2 4953.06
3 4953.06
4 4915.55
5 4892.67
6 4892.67
7 4892.67
8 4892.67
9 4892.67
10 4892.67
11 4892.67
12 4858.83
13 4858.83
14 4858.83
15 4858.83
16 4858.83
17 4858.83
18 4855.88
19 4855.88
20 4855.88
21 4825.21
22 4825.21
23 4825.21
24 4825.21
25 4825.21
26 4825.21
27 4783.20
28 4783.20
29 4783.20
30 4783.20
31 4783.20
32 4783.20
33 4783.20
34 4782.27
35 4782.27
36 4782.27
37 4782.27
38 4782.27
39 4782.27
40 4782.27
41 4767.58
42 4767.58
43 4767.58
44 4767.58
45 4756.84
46 4756.84
47 4756.84
48 4756.84
49 4756.84
50 4756.84
51 4756.84
52 4756.84
53 4745.85
54 4745.85
55 4745.85
56 4745.85
57 4735.94
58 4735.94
59 4735.94
60 4735.94
61 4735.94
62 4735.94
63 4727.50
64 4715.76
65 4715.76
66 4715.76
67 4715.76
68 4715.76
69 4715.76
70 4715.76
71 4715.76
72 4715.76
73 4715.76
74 4715.76
75 4715.76
76 4715.76
77 4715.76
78 4715.76
79 4715.76
80 4715.76
81 4715.76
82 4715.76
83 4715.76
84 4715.76
85 4715.76
86 4715.76
87 4715.76
88 4715.76
89 4715.76
90 4715.76
91 4715.76
92 4715.76
93 4715.76
94 4715.76
95 4715.76
96 4715.76
97 4715.76
98 4715.76
99 4715.76
100 4715.76
101 4715.76
102 4715.76
103 4715.76
104 4715.76
105 4715.76
106 4715.76
107 4715.76
108 4715.76
109 4715.76
110 4715.76
111 4715.76
112 4715.76
113 4715.76
114 4715.76
115 4715.76
116 4715.76
117 4715.76
118 4715.76
119 4715.76
120 4715.76
121 4715.76
122 4715.76
123 4715.76
124 4715.76
125 4715.76
126 4715.76
127 4715.76
128 4715.76
129 4715.76
130 4715.76
131 4715.76
132 4715.76
133 4715.76
134 4715.76
135 4715.76
136 4715.76
137 4715.76
138 4715.76
139 4715.76
140 4715.76
141 4715.76
142 4715.76
143 4715.76
144 4715.76
145 4715.76
146 4715.76
147 4714.93
148 4714.93
149 4714.93
150 4714.93
151 4697.93
152 4697.93
153 4697.93
154 4697.93
155 4697.93
156 4697.93
157 4697.93
158 4697.93
159 4697.93
160 4697.93
161 4697.93
162 4697.93
163 4697.93
164 4697.93
165 4697.93
166 4697.93
167 4697.93
168 4697.93
169 4697.93
170 4697.93
171 4697.93
172 4697.93
173 4697.93
174 4697.93
175 4697.93
176 4697.93
177 4697.93
178 4697.93
179 4697.93
180 4697.93
181 4697.93
182 4697.93
183 4697.93
184 4697.93
185 4697.93
186 4697.93
187 4697.93
188 4697.93
189 4697.93
190 4697.93
191 4697.93
192 4697.93
193 4697.93
194 4697.93
195 4697.93
196 4688.13
197 4683.41
198 4683.41
199 4683.41
200 4683.41
201 4683.41
202 4683.41
203 4683.41
204 4683.41
205 4683.41
206 4683.41
207 4683.41
208 4683.41
209 4683.41
210 4683.41
211 4673.92
212 4673.92
213 4673.92
214 4673.92
215 4673.92
216 4673.92
217 4673.92
218 4673.92
219 4673.92
220 4673.92
221 4673.92
222 4673.92
223 4673.92
224 4673.92
225 4673.92
226 4673.92
227 4673.92
228 4673.92
229 4673.92
230 4673.92
231 4668.77
232 4668.77
233 4668.77
234 4668.77
235 4668.77
236 4668.77
237 4668.77
238 4668.77
239 4668.77
240 4668.77
241 4668.77
242 4668.77
243 4668.77
244 4668.77
245 4668.77
246 4668.77
247 4668.77
248 4668.77
249 4668.77
250 4668.77
251 4668.77
252 4668.77
253 4668.77
254 4668.77
255 4668.77
256 4668.77
257 4668.77
258 4668.77
259 4668.77
260 4668.77
261 4668.77
262 4668.77
263 4668.77
264 4668.77
265 4667.41
266 4667.41
267 4664.95
268 4664.95
269 4664.95
270 4664.95
271 4664.95
272 4664.95
273 4663.59
274 4663.59
275 4663.59
276 4663.59
277 4663.59
278 4662.28
279 4662.28
280 4662.28
281 4662.28
282 4662.28
283 4662.28
284 4662.28
285 4662.28
286 4662.28
287 4662.28
288 4662.28
289 4662.28
290 4662.28
291 4662.28
292 4662.28
293 4662.28
294 4662.28
295 4662.28
296 4662.28
297 4662.28
298 4662.28
299 4662.28
300 4662.28
301 4662.28
302 4662.28
303 4662.28
304 4662.28
305 4662.28
306 4662.28
307 4662.28
308 4662.28
309 4662.28
310 4662.28
311 4662.28
312 4662.28
313 4662.28
314 4662.28
315 4662.28
316 4662.28
317 4662.28
318 4662.28
319 4662.28
320 4662.28
321 4662.28
322 4662.28
323 4662.28
324 4662.28
325 4662.28
326 4662.28
327 4662.28
328 4662.28
329 4662.28
330 4662.28
331 4662.28
332 4662.28
333 4662.28
334 4662.28
335 4662.28
336 4662.28
337 4662.28
338 4661.43
339 4661.43
340 4661.43
341 4661.43
342 4661.43
343 4661.43
344 4661.43
345 4661.43
346 4661.43
347 4661.43
348 4661.43
349 4661.43
350 4661.43
351 4661.43
352 4661.43
353 4661.43
354 4661.43
355 4661.43
356 4661.43
357 4661.43
358 4661.43
359 4661.43
360 4661.43
361 4645.71
362 4645.71
363 4645.71
364 4645.71
365 4645.71
366 4645.71
367 4645.71
368 4645.71
369 4645.71
370 4645.71
371 4645.71
372 4645.71
373 4645.71
374 4645.71
375 4645.71
376 4645.71
377 4645.71
378 4645.71
379 4645.71
380 4645.71
381 4641.42
382 4641.42
383 4641.42
384 4641.42
385 4641.42
386 4641.42
387 4641.42
388 4641.42
389 4641.42
390 4641.42
391 4641.42
392 4641.42
393 4641.42
394 4641.42
395 4641.42
396 4641.42
397 4641.42
398 4641.42
399 4633.30
400 4633.30
401 4633.30
402 4633.30
403 4633.30
404 4633.30
405 4633.30
406 4633.30
407 4633.30
408 4633.30
409 4633.30
410 4633.30
411 4633.30
412 4633.30
413 4633.30
414 4633.30
415 4633.30
416 4633.30
417 4633.30
418 4630.22
419 4630.22
420 4630.22
421 4630.22
422 4630.22
423 4630.22
424 4630.22
425 4630.22
426 4630.22
427 4630.22
428 4630.22
429 4630.22
430 4630.22
431 4630.22
432 4630.22
433 4630.22
434 4630.22
435 4630.22
436 4630.22
437 4630.22
438 4630.22
439 4630.22
440 4630.22
441 4630.22
442 4630.22
443 4630.22
444 4630.22
445 4630.22
446 4630.22
447 4630.22
448 4630.22
449 4630.22
450 4630.22
451 4630.22
452 4630.22
453 4630.22
454 4630.22
455 4630.22
456 4630.22
457 4630.22
458 4630.22
459 4630.22
460 4630.22
461 4630.22
462 4630.22
463 4630.22
464 4630.22
465 4630.22
466 4630.22
467 4630.22
468 4630.22
469 4630.22
470 4630.22
471 4630.22
472 4630.22
473 4630.22
474 4630.22
475 4630.22
476 4630.22
477 4630.22
478 4630.22
479 4630.22
480 4630.22
481 4630.22
482 4630.22
483 4630.22
484 4630.22
485 4630.22
486 4630.22
487 4630.22
488 4630.22
489 4630.22
490 4630.22
491 4630.22
492 4630.22
493 4630.22
494 4630.22
495 4630.22
496 4630.22
497 4630.22
498 4630.22
499 4630.22
2 4 8 5 0 0 